Route #1: 50 45 22 4 32 38
Route #2: 49 73 36 66 67 53 42
Route #3: 58 76 72 54 9 15 41 25 46 64 77 51
Route #4: 70 33 55 56 69 65 35 26 47 19 57 75 20
Route #5: 3 39 60 74 13
Route #6: 62 23 5 59 31 17 29
Route #7: 52 34 2 37 8 68 43 16 61 78 27
Route #8: 63 11 24 6 30 44 12
Route #9: 14 48 18 79 28 71 10
Route #10: 1 7 21 40
Cost 1775
Time 0.136291
